n_machines = 3;
n_resources = 6;
n_jobs = 60;
horizon = 26967;
LB = 8989;
n_jobs_per_resource = [10, 10, 10, 10, 10, 10];
duration = [634, 653, 720, 25, 878, 814, 813, 141, 397, 470, 53, 306, 11, 793, 629, 770, 523, 698, 105, 629, 5, 19, 5, 626, 477, 351, 786, 85, 376, 692, 987, 794, 331, 612, 554, 647, 34, 658, 396, 680, 217, 265, 70, 436, 234, 688, 163, 45, 60, 978, 155, 501, 397, 778, 449, 828, 836, 84, 433, 173]